163	32	4	133	
10	10	10	10

0	0	0	0	0	0	2	1	30
1	1	1	0	1	6	2	29	2
2	4	4	0	2	6	1	3
3	6	0	1	2	1	1	4
4	5	3	4	0	1	1	5
5	0	3	2	4	9	1	6
6	4	3	0	5	1	1	7
7	0	6	5	4	5	1	8
8	2	5	0	5	5	1	9
9	2	6	0	4	7	1	10
10	3	0	2	1	9	1	11
11	0	4	5	2	6	1	12
12	5	5	7	0	7	2	28	13
13	3	0	3	4	5	1	14
14	0	6	3	4	10	1	15
15	0	5	4	4	3	1	16
16	5	0	4	5	10	2	27	17
17	0	3	5	3	4	1	18
18	4	4	5	0	10	2	26	19
19	4	8	3	0	3	1	20
20	4	3	0	6	7	1	21
21	5	0	4	3	2	2	25	22
22	0	5	2	3	4	1	23
23	0	3	3	7	6	1	24
24	7	0	5	10	6	1	31
25	5	1	0	3	5	1	31
26	0	5	4	5	3	1	31
27	3	2	0	3	9	1	31
28	4	2	9	0	2	1	31
29	0	6	2	6	4	1	31
30	4	3	6	0	7	1	31
31	0	0	0	0	0	0
